bestever    1691    in generation 0
[15, 9, 16, 10, 18, 5, 7, 12, 20, 4, 13, 3, 8, 2, 1, 17, 19, 11, 6, 14, 15, 9, 16, 10, 18, 5, 7, 12, 20, 4, 13, 3, 8, 2, 1, 17, 19, 11, 6, 14, 15, 9, 16, 10, 18, 5, 7, 12, 20, 4, 13, 3, 8, 2, 1, 17, 19, 11, 6, 14, 15, 9, 16, 10, 18, 5, 7, 12, 20, 4, 13, 3, 8, 2, 1, 17, 19, 11, 6, 14, 15, 9, 16, 10, 18, 5, 7, 12, 20, 4, 13, 3, 8, 2, 1, 17, 19, 11, 6, 14, 15, 9, 16, 10, 18, 5, 7, 12, 20, 4, 13, 3, 8, 2, 1, 17, 19, 11, 6, 14, 15, 9, 16, 10, 18, 5, 7, 12, 20, 4, 13, 3, 8, 2, 1, 17, 19, 11, 6, 14, 15, 9, 16, 10, 18, 5, 7, 12, 20, 4, 13, 3, 8, 2, 1, 17, 19, 11, 6, 14, 15, 9, 16, 10, 18, 5, 7, 12, 20, 4, 13, 3, 8, 2, 1, 17, 19, 11, 6, 14, 15, 9, 16, 10, 18, 5, 7, 12, 20, 4, 13, 3, 8, 2, 1, 17, 19, 11, 6, 14]
bestever    1681    in generation 936
[15, 9, 16, 10, 15, 18, 5, 7, 12, 15, 9, 15, 4, 9, 20, 16, 10, 18, 5, 7, 12, 20, 9, 16, 2, 10, 18, 5, 7, 12, 20, 4, 13, 3, 8, 2, 1, 17, 4, 16, 13, 3, 8, 2, 13, 3, 15, 9, 16, 15, 10, 18, 5, 16, 1, 10, 18, 5, 9, 7, 12, 20, 4, 13, 3, 8, 1, 7, 12, 20, 4, 13, 3, 8, 2, 19, 1, 10, 17, 9, 17, 8, 19, 10, 9, 18, 5, 15, 16, 10, 16, 18, 5, 7, 12, 9, 19, 11, 17, 20, 4, 13, 3, 16, 10, 15, 18, 5, 7, 12, 20, 4, 13, 3, 8, 2, 1, 17, 11, 8, 19, 7, 12, 20, 2, 2, 9, 15, 16, 10, 12, 4, 13, 3, 11, 2, 1, 17, 19, 8, 6, 14, 18, 5, 11, 14, 1, 17, 11, 19, 7, 20, 4, 13, 3, 6, 2, 6, 11, 6, 14, 1, 17, 19, 11, 8, 14, 6, 14, 19, 11, 6, 14, 6, 14, 1, 17, 19, 11, 6, 14, 6, 14, 15, 18, 5, 7, 12, 20, 3, 4, 13, 8, 2, 1, 17, 19, 6, 11, 14]
bestever    1678    in generation 2864
[15, 16, 9, 16, 16, 18, 15, 10, 5, 9, 18, 15, 4, 16, 9, 16, 9, 9, 9, 12, 15, 9, 10, 20, 18, 5, 7, 15, 13, 16, 12, 20, 7, 18, 2, 10, 5, 12, 7, 20, 15, 4, 13, 3, 8, 2, 16, 1, 15, 17, 4, 16, 13, 3, 9, 8, 5, 2, 14, 16, 18, 15, 3, 18, 5, 15, 19, 10, 1, 5, 5, 10, 18, 7, 10, 12, 20, 4, 7, 12, 13, 3, 8, 20, 4, 13, 18, 9, 15, 3, 8, 2, 5, 1, 6, 17, 16, 19, 8, 1, 10, 18, 5, 10, 11, 9, 7, 7, 6, 2, 10, 17, 12, 17, 7, 20, 19, 12, 5, 12, 20, 17, 13, 14, 20, 3, 8, 4, 13, 3, 11, 8, 2, 19, 11, 7, 12, 20, 17, 1, 2, 11, 4, 13, 3, 2, 6, 8, 14, 7, 4, 13, 3, 2, 8, 4, 19, 1, 17, 19, 11, 6, 14, 6, 14, 1, 11, 19, 11, 6, 18, 10, 1, 17, 19, 11, 6, 14, 14, 6, 14, 1, 17, 19, 11, 6, 14, 12, 20, 3, 13, 4, 8, 2, 1, 17, 19, 6, 11, 14]
bestever    1675    in generation 2876
[15, 16, 9, 16, 16, 18, 15, 10, 5, 9, 18, 15, 4, 16, 9, 16, 9, 9, 9, 12, 15, 9, 10, 20, 18, 5, 7, 15, 13, 16, 12, 20, 7, 18, 2, 10, 5, 12, 7, 20, 15, 4, 13, 3, 8, 2, 16, 1, 15, 17, 4, 16, 13, 3, 9, 8, 5, 2, 14, 16, 18, 15, 3, 18, 5, 15, 19, 10, 1, 5, 5, 10, 18, 7, 10, 12, 20, 4, 7, 12, 13, 3, 8, 20, 4, 13, 18, 9, 15, 3, 8, 2, 5, 1, 6, 17, 16, 19, 8, 10, 18, 5, 10, 11, 9, 7, 7, 2, 10, 17, 12, 17, 7, 20, 19, 12, 5, 12, 20, 17, 13, 20, 3, 8, 11, 7, 12, 20, 13, 3, 2, 8, 4, 1, 17, 19, 11, 6, 14, 1, 2, 11, 4, 13, 3, 2, 6, 8, 14, 7, 4, 13, 3, 2, 8, 4, 19, 1, 17, 19, 11, 6, 14, 6, 14, 1, 11, 19, 11, 6, 18, 10, 1, 17, 19, 11, 6, 14, 14, 6, 14, 1, 17, 19, 11, 6, 14, 12, 20, 3, 13, 4, 8, 2, 1, 17, 19, 6, 11, 14]
bestever    1673    in generation 3089
[15, 16, 9, 16, 16, 18, 15, 10, 5, 9, 18, 15, 4, 16, 9, 16, 9, 9, 9, 12, 15, 9, 10, 20, 18, 5, 7, 15, 13, 16, 12, 20, 7, 18, 2, 10, 5, 12, 7, 20, 15, 4, 13, 18, 3, 8, 2, 16, 1, 15, 17, 4, 16, 13, 3, 9, 8, 5, 18, 2, 14, 16, 15, 3, 18, 5, 15, 19, 10, 1, 5, 5, 10, 18, 7, 10, 12, 20, 4, 7, 12, 13, 3, 8, 20, 4, 13, 18, 9, 15, 8, 3, 2, 5, 1, 7, 17, 16, 19, 8, 10, 5, 10, 17, 9, 20, 6, 2, 10, 17, 12, 7, 20, 12, 5, 12, 7, 11, 13, 20, 3, 8, 11, 7, 12, 20, 13, 3, 2, 8, 4, 14, 19, 6, 10, 1, 2, 4, 13, 3, 2, 8, 7, 4, 13, 3, 2, 8, 4, 17, 19, 11, 6, 14, 1, 17, 19, 1, 11, 17, 19, 11, 6, 14, 6, 14, 1, 11, 19, 11, 6, 18, 1, 17, 19, 11, 6, 14, 14, 6, 14, 1, 17, 19, 11, 6, 14, 12, 20, 3, 13, 4, 8, 2, 1, 17, 19, 6, 11, 14]
bestever    1672    in generation 3199
[15, 16, 9, 16, 16, 18, 15, 10, 5, 9, 18, 15, 4, 16, 9, 16, 9, 9, 9, 12, 15, 9, 10, 20, 18, 5, 7, 15, 13, 16, 12, 20, 7, 18, 2, 10, 5, 12, 7, 20, 15, 4, 13, 18, 3, 8, 2, 16, 1, 15, 17, 4, 16, 13, 3, 9, 8, 5, 18, 2, 16, 15, 3, 18, 5, 15, 19, 10, 1, 5, 5, 10, 18, 7, 10, 12, 20, 4, 7, 12, 13, 3, 8, 20, 2, 13, 18, 9, 15, 8, 3, 2, 5, 1, 7, 17, 20, 19, 8, 10, 5, 10, 17, 11, 9, 20, 4, 10, 12, 7, 20, 12, 5, 12, 7, 13, 20, 3, 8, 7, 12, 16, 13, 3, 2, 4, 10, 13, 3, 2, 8, 4, 11, 6, 14, 6, 14, 1, 17, 19, 2, 8, 7, 4, 13, 3, 2, 8, 4, 17, 19, 11, 6, 14, 1, 17, 19, 1, 11, 17, 19, 11, 6, 14, 6, 14, 1, 11, 19, 11, 6, 18, 6, 14, 14, 1, 17, 19, 11, 6, 14, 1, 17, 19, 11, 6, 14, 12, 20, 3, 13, 4, 8, 2, 1, 17, 19, 6, 11, 14]
bestever    1671    in generation 3439
[15, 16, 9, 16, 16, 18, 15, 10, 5, 9, 18, 15, 4, 16, 9, 16, 12, 9, 9, 9, 15, 9, 10, 20, 18, 5, 7, 15, 13, 16, 12, 20, 7, 18, 2, 10, 5, 12, 7, 20, 15, 4, 13, 18, 3, 8, 10, 2, 16, 15, 1, 15, 4, 17, 16, 13, 3, 9, 8, 5, 18, 2, 16, 15, 3, 18, 10, 5, 19, 10, 1, 5, 5, 10, 18, 7, 10, 12, 20, 4, 7, 12, 13, 3, 8, 20, 2, 13, 18, 9, 15, 8, 3, 2, 5, 1, 7, 17, 20, 19, 8, 10, 5, 10, 17, 11, 9, 20, 4, 12, 7, 20, 12, 5, 12, 7, 13, 20, 3, 8, 7, 12, 16, 13, 3, 2, 4, 13, 3, 2, 8, 4, 11, 6, 14, 6, 14, 1, 17, 19, 2, 8, 7, 4, 13, 3, 2, 8, 4, 17, 19, 11, 6, 14, 1, 17, 19, 1, 11, 17, 19, 11, 6, 14, 6, 14, 1, 11, 19, 11, 6, 18, 6, 14, 14, 1, 17, 19, 11, 6, 14, 1, 17, 19, 11, 6, 14, 12, 20, 3, 13, 4, 8, 2, 1, 17, 19, 6, 11, 14]
bestever    1668    in generation 6469
[15, 16, 16, 15, 16, 9, 15, 9, 18, 10, 15, 5, 9, 18, 9, 4, 12, 15, 18, 9, 10, 9, 16, 10, 9, 10, 20, 16, 18, 15, 16, 9, 16, 5, 15, 7, 13, 12, 5, 10, 20, 4, 5, 7, 15, 13, 18, 2, 3, 10, 15, 12, 7, 5, 20, 10, 2, 13, 8, 9, 1, 5, 5, 18, 17, 18, 14, 10, 3, 8, 7, 4, 2, 16, 3, 9, 12, 5, 19, 11, 1, 20, 7, 20, 20, 12, 10, 18, 2, 13, 7, 3, 20, 12, 8, 7, 20, 2, 12, 13, 13, 10, 8, 6, 16, 7, 20, 17, 1, 4, 19, 3, 17, 5, 12, 20, 13, 8, 3, 1, 16, 17, 11, 3, 8, 12, 2, 19, 13, 2, 15, 11, 7, 12, 19, 8, 4, 4, 4, 3, 2, 5, 18, 8, 1, 4, 13, 3, 2, 8, 4, 7, 17, 19, 6, 11, 14, 17, 18, 6, 17, 1, 19, 11, 6, 14, 1, 11, 6, 19, 11, 6, 14, 1, 6, 14, 1, 17, 19, 11, 14, 17, 19, 11, 14, 3, 2, 4, 8, 13, 6, 6, 14, 14, 1, 17, 19, 6, 11, 14]
